(set-logic QF_LIA)
(set-info :ran/rdiff_6_1.smt2)
(set-info :smt-lib-version 2.0)
(declare-fun x0 () Int)
(declare-fun x1 () Real)
(declare-fun x2 () Real)
(declare-fun x3 () Real)
(declare-fun x4 () Real)
(declare-fun x5 () Real)
(define-fun ie0 () Bool (<= (+ (* 32 x2) (* 87 x1) ) 52))
(define-fun ie1 () Bool (<= (+ (* 68 x5) (* 44 x2) ) 88))
(define-fun ie2 () Bool (<= (+ (* 40 x3) (* (- 83) x3) ) (- 66)))
(define-fun ie3 () Bool (<= (+ (* 14 x1) (* 65 x3) ) (- 50)))
(define-fun ie4 () Bool (<= (+ (* (- 53) x5) (* 5 x0) ) 50))
(define-fun ie5 () Bool (<= (+ (* 42 x1) (* 83 x2) ) 18))
(define-fun ie6 () Bool (<= (+ (* 23 x3) (* 16 x2) ) 44))
(define-fun ie7 () Bool (<= (+ (* (- 79) x0) (* (- 31) x3) ) 12))
(define-fun ie8 () Bool (<= (+ (* (- 42) x3) (* (- 97) x5) ) (- 3)))
(define-fun ie9 () Bool (<= (+ (* 90 x3) (* 96 x1) ) 60))
(define-fun ie10 () Bool (<= (+ (* (- 54) x2) (* 19 x4) ) 92))
(define-fun ie11 () Bool (<= (+ (* (- 31) x2) (* 70 x4) ) (- 56)))
(assert ie0)
(assert ie1)
(assert ie2)
(assert ie3)
(assert ie4)
(assert ie5)
(assert ie6)
(assert ie7)
(assert ie8)
(assert ie9)
(assert ie10)
(assert ie11)
(check-sat)
(exit)
